Tried aggregator 2 times.
MIP Presolve eliminated 8 rows and 8 columns.
Aggregator did 4 substitutions.
Reduced MIP has 105109 rows, 140148 columns, and 350364 nonzeros.
Reduced MIP has 35036 binaries, 0 generals, 0 SOSs, and 0 indicators.
Presolve time = 0.32 sec. (224.71 ticks)
Found incumbent of value 3170.152196 after 0.82 sec. (678.99 ticks)
Probing time = 0.19 sec. (6.64 ticks)
Tried aggregator 1 time.
Reduced MIP has 105109 rows, 140148 columns, and 350364 nonzeros.
Reduced MIP has 35036 binaries, 0 generals, 0 SOSs, and 0 indicators.
Presolve time = 0.48 sec. (189.93 ticks)
Probing time = 0.05 sec. (6.24 ticks)
MIP emphasis: balance optimality and feasibility.
MIP search method: dynamic search.
Parallel mode: deterministic, using up to 20 threads.
Root relaxation solution time = 1.61 sec. (1039.94 ticks)

        Nodes                                         Cuts/
   Node  Left     Objective  IInf  Best Integer    Best Bound    ItCnt     Gap

*     0+    0                         3170.1522   1.41323e+07              --- 
*     0+    0                       123109.8108   1.41323e+07              --- 
      0     0  3840619.5300  1421   123109.8108  3840619.5300    14517     --- 
*     0+    0                      3716881.9980  3840619.5300             3.33%
      0     0  3823500.4257   608  3716881.9980    Cuts: 2604    15375    2.87%
      0     0  3822006.9327   526  3716881.9980    Cuts: 1754    16114    2.83%
      0     0  3818656.7673   563  3716881.9980    Cuts: 1446    16813    2.74%
      0     0  3809729.7237   404  3716881.9980    Cuts: 1457    17464    2.50%
      0     0  3807389.1352   301  3716881.9980     Cuts: 574    17789    2.44%
*     0+    0                      3737049.8083  3807389.1352             1.88%
      0     0  3806674.3979   265  3737049.8083     Cuts: 283    17960    1.86%
      0     0  3806508.8274   233  3737049.8083      Cuts: 88    18007    1.86%
      0     0  3806251.4646   222  3737049.8083      Cuts: 75    18034    1.85%
      0     0  3806181.3983   210  3737049.8083   MIRcuts: 10    18040    1.85%
      0     0  3806180.4526   211  3737049.8083   Flowcuts: 1    18042    1.85%
      0     0  3806166.1837   209  3737049.8083    MIRcuts: 3    18045    1.85%
*     0+    0                      3786492.4856  3806166.1837             0.52%
*     0+    0                      3787717.0823  3806166.1837             0.49%
      0     2  3806166.1837   209  3787717.0823  3806166.1837    18045    0.49%
Elapsed time = 14.51 sec. (11032.86 ticks, tree = 0.01 MB, solutions = 6)
      4     6  3806115.1687   206  3787717.0823  3806163.6167    18054    0.49%
      5     7  3806069.1063   207  3787717.0823  3806163.6167    18057    0.49%
      7     9  3806112.7457   206  3787717.0823  3806163.6167    18065    0.49%
      8    10  3806067.3081   207  3787717.0823  3806163.6167    18066    0.49%
      9    11  3805965.4885   207  3787717.0823  3806163.6167    18072    0.49%
     10    12  3806064.6764   207  3787717.0823  3806163.6167    18074    0.49%
     11    13  3806158.8082   205  3787717.0823  3806158.8981    18076    0.49%
     12    14  3806112.0636   206  3787717.0823  3806158.8981    18077    0.49%
     13    15  3806059.6181   207  3787717.0823  3806158.8981    18078    0.49%
    126   128  3806139.1272   203  3787717.0823  3806144.3872    18319    0.49%
Elapsed time = 16.30 sec. (12006.37 ticks, tree = 0.01 MB, solutions = 6)
    505   507  3805957.1902   201  3787717.0823  3806144.3872    19329    0.49%
    506   508  3805928.0051   193  3787717.0823  3806144.3872    19330    0.49%
    507   509  3805690.3429   202  3787717.0823  3806144.3872    19335    0.49%
    508   510  3805565.3041   193  3787717.0823  3806144.3872    19339    0.49%
    509   511  3805578.6193   194  3787717.0823  3806144.3872    19343    0.49%
    510   512  3805823.7156   198  3787717.0823  3806144.3872    19344    0.49%
    511   513  3805820.4270   198  3787717.0823  3806144.3872    19345    0.49%
    512   514  3805534.2443   196  3787717.0823  3806144.3872    19346    0.49%
    513   515  3805719.6306   203  3787717.0823  3806144.3872    19349    0.49%
    514   516  3805566.5146   199  3787717.0823  3806144.3872    19350    0.49%
Elapsed time = 18.59 sec. (13023.66 ticks, tree = 0.01 MB, solutions = 6)
*   769+  769                      3787752.9533  3806144.3872             0.49%
    769   771  3805267.0637   195  3787752.9533  3806144.3872    20014    0.49%
    784   786  3805671.2810   199  3787752.9533  3806144.3872    20040    0.49%
*   786+  786                      3787753.0481  3806144.3872             0.49%
    786   788  3805815.7463   195  3787753.0481  3806144.3872    20042    0.49%
    789   791  3805518.1274   196  3787753.0481  3806144.3872    20045    0.49%
    794   796  3805647.5581   201  3787753.0481  3806144.3872    20050    0.49%
    795   797  3805644.2695   201  3787753.0481  3806144.3872    20051    0.49%
    798   800  3805513.8358   198  3787753.0481  3806144.3872    20054    0.49%
    799   801  3805406.8718   198  3787753.0481  3806144.3872    20055    0.49%
    802   804  3805942.8953   199  3787753.0481  3806144.3872    20058    0.49%
    803   805  3805915.3629   193  3787753.0481  3806144.3872    20059    0.49%
Elapsed time = 21.45 sec. (13998.40 ticks, tree = 0.89 MB, solutions = 6)
*   804+  804                      3787830.0282  3806144.3872             0.48%
*   810+  810                      3787837.8540  3806144.3872             0.48%
   1037  1039  3805775.8376   194  3787837.8540  3806144.3872    20779    0.48%
   1040  1042  3805783.0666   198  3787837.8540  3806144.3872    20782    0.48%
   1057  1059  3805775.9208   194  3787837.8540  3806144.3872    20821    0.48%
   1060  1062  3805781.4401   198  3787837.8540  3806144.3872    20830    0.48%
   1077  1079  3805774.3373   194  3787837.8540  3806144.3872    20857    0.48%
   1080  1082  3805781.5233   198  3787837.8540  3806144.3872    20860    0.48%
*  1081+ 1081                      3788125.4425  3806144.3872             0.48%
   1081  1083  3805511.2574   195  3788125.4425  3806144.3872    20861    0.48%
   1097  1099  3805774.3774   194  3788125.4425  3806144.3872    20889    0.48%
   1098  1100  3805804.4798   195  3788125.4425  3806144.3872    20891    0.48%
   1100  1102  3805779.9398   198  3788125.4425  3806144.3872    20895    0.48%
Elapsed time = 23.98 sec. (15411.92 ticks, tree = 8.55 MB, solutions = 12)
   1473  1475  3805879.3597   198  3788125.4425  3806144.3872    21499    0.48%
   1474  1476  3805748.9829   194  3788125.4425  3806144.3872    21500    0.48%
   1475  1477  3805770.7973   196  3788125.4425  3806144.3872    21503    0.48%
   1476  1478  3805768.7679   199  3788125.4425  3806144.3872    21506    0.48%
   1477  1479  3805746.2573   199  3788125.4425  3806144.3872    21509    0.48%
   1478  1480  3805484.1633   195  3788125.4425  3806144.3872    21510    0.48%
   1480  1482  3805519.7674   198  3788125.4425  3806144.3872    21514    0.48%
   1493  1495  3805870.3381   199  3788125.4425  3806144.3872    21533    0.48%
   1494  1496  3805739.9613   195  3788125.4425  3806144.3872    21536    0.48%
   1495  1497  3805775.1481   195  3788125.4425  3806144.3872    21537    0.48%
Elapsed time = 26.79 sec. (16432.47 ticks, tree = 16.74 MB, solutions = 14)
   1828  1830  3805599.4880   192  3788125.4425  3806144.3872    22268    0.48%
   1848  1850  3805825.0293   194  3788125.4425  3806144.3872    22328    0.48%
   1868  1870  3805584.6430   192  3788125.4425  3806144.3872    22406    0.48%
   1888  1890  3805824.8339   194  3788125.4425  3806144.3872    22463    0.48%
   1908  1910  3805718.1660   194  3788125.4425  3806144.3872    22548    0.48%
   1928  1930  3805823.4506   194  3788125.4425  3806144.3872    22607    0.48%
   1948  1950  3805821.6730   194  3788125.4425  3806144.3872    22681    0.48%
   1968  1970  3805818.3061   194  3788125.4425  3806144.3872    22729    0.48%
   1988  1990  3805816.8239   194  3788125.4425  3806144.3872    22786    0.48%
   2008  2010  3805807.0732   194  3788125.4425  3806144.3872    22812    0.48%
Elapsed time = 29.97 sec. (17895.81 ticks, tree = 29.24 MB, solutions = 14)
   2562  2564  3805660.7732   195  3788125.4425  3806144.3872    24333    0.48%
   2576  2578  3803988.9840   187  3788125.4425  3806144.3872    24380    0.48%
   2582  2584  3805459.6845   194  3788125.4425  3806144.3872    24409    0.48%
   2596  2598  3803961.0128   188  3788125.4425  3806144.3872    24445    0.48%
   2602  2604  3805643.8091   196  3788125.4425  3806144.3872    24460    0.48%
   2616  2618  3803984.9767   187  3788125.4425  3806144.3872    24504    0.48%
   2622  2624  3805412.4297   194  3788125.4425  3806144.3872    24526    0.48%
   2636  2638  3803983.5387   187  3788125.4425  3806144.3872    24565    0.48%
   2642  2644  3805632.8859   196  3788125.4425  3806144.3872    24584    0.48%
   2656  2658  3803764.3244   186  3788125.4425  3806144.3872    24630    0.48%
Elapsed time = 33.45 sec. (19004.45 ticks, tree = 47.62 MB, solutions = 14)
   3146  3148  3802765.5147   182  3788125.4425  3806144.3872    25993    0.48%
   3171  3173  3803933.9670   189  3788125.4425  3806144.3872    26059    0.48%
   3301  3303  3803450.7635   185  3788125.4425  3806144.3872    26378    0.48%
   3302  3304  3803923.5822   189  3788125.4425  3806144.3872    26381    0.48%
   3308  3310  3803131.6185   185  3788125.4425  3806144.3872    26396    0.48%
   3309  3311  3802380.6006   183  3788125.4425  3806144.3872    26399    0.48%
   3310  3312  3803126.0542   185  3788125.4425  3806144.3872    26400    0.48%
   3313  3315  3802502.1955   184  3788125.4425  3806144.3872    26408    0.48%
   3319  3321  3803477.3765   188  3788125.4425  3806144.3872    26421    0.48%
   3320  3322  3802328.4525   182  3788125.4425  3806144.3872    26424    0.48%
Elapsed time = 36.62 sec. (19958.21 ticks, tree = 47.62 MB, solutions = 14)
   3337  3339  3803310.9413   186  3788125.4425  3806144.3872    26480    0.48%
   3338  3340  3802837.2242   186  3788125.4425  3806144.3872    26483    0.48%
   3357  3359  3803218.9440   186  3788125.4425  3806144.3872    26525    0.48%
   3358  3360  3803178.4819   186  3788125.4425  3806144.3872    26526    0.48%
   3366  3368  3803371.7012   184  3788125.4425  3806144.3872    26549    0.48%
   3377  3379  3803121.1657   185  3788125.4425  3806144.3872    26575    0.48%
   3378  3380  3803086.4846   186  3788125.4425  3806144.3872    26577    0.48%
   3386  3388  3803200.1916   183  3788125.4425  3806144.3872    26604    0.48%
   3397  3399  3803110.2425   185  3788125.4425  3806144.3872    26632    0.48%
   3398  3400  3802988.7063   185  3788125.4425  3806144.3872    26635    0.48%
Elapsed time = 39.83 sec. (21180.93 ticks, tree = 74.10 MB, solutions = 14)
   3467  3469  3804656.4159   192  3788125.4425  3806144.3872    26804    0.48%
   3595  3597  3802569.6312   182  3788125.4425  3806144.3872    27097    0.48%
   3614  3616  3802458.1624   183  3788125.4425  3806144.3872    27130    0.48%
   3619  3621  3803217.8552   184  3788125.4425  3806144.3872    27136    0.48%
   3633  3635  3802564.7167   182  3788125.4425  3806144.3872    27161    0.48%
   3638  3640  3803125.8579   184  3788125.4425  3806144.3872    27173    0.48%
   3652  3654  3802500.1098   182  3788125.4425  3806144.3872    27208    0.48%
   3657  3659  3803028.0795   183  3788125.4425  3806144.3872    27222    0.48%
   3671  3673  3802289.9589   181  3788125.4425  3806144.3872    27259    0.48%
   5394  5396  3802365.7555   175  3788125.4425  3806144.3872    31646    0.48%
Elapsed time = 50.18 sec. (25032.68 ticks, tree = 93.41 MB, solutions = 14)
   5685  5687  3799364.1651   143  3788125.4425  3806144.3872    32699    0.48%
   5686  5688  3802204.3770   165  3788125.4425  3806144.3872    32701    0.48%
*  5687+ 5687                      3788495.5470  3806144.3872             0.47%
   5687  5689  3800367.5514   152  3788495.5470  3806144.3872    32704    0.47%
   5688  5690  3799546.3600   146  3788495.5470  3806144.3872    32707    0.47%
   5689  5691  3799786.5690   148  3788495.5470  3806144.3872    32708    0.47%
   5690  5692  3799861.8004   149  3788495.5470  3806144.3872    32709    0.47%
   5691  5693  3799740.8437   147  3788495.5470  3806144.3872    32710    0.47%
   5692  5694  3799631.8672   149  3788495.5470  3806144.3872    32714    0.47%
   5693  5695  3799605.2003   149  3788495.5470  3806144.3872    32716    0.47%
   5694  5696  3799614.5598   149  3788495.5470  3806144.3872    32717    0.47%
Elapsed time = 72.85 sec. (37674.20 ticks, tree = 264.07 MB, solutions = 14)
   5701  5703  3798128.3125   139  3788495.5470  3806144.3872    32732    0.47%
*  5705+ 3804                      3790179.0010  3790462.7839             0.01%

Implied bound cuts applied:  161
Flow cuts applied:  73
Mixed integer rounding cuts applied:  4720
Lift and project cuts applied:  58
Gomory fractional cuts applied:  245

Root node processing (before b&c):
  Real time             =   13.82 sec. (10931.98 ticks)
Parallel b&c, 20 threads:
  Real time             =   87.70 sec. (57041.03 ticks)
  Sync time (average)   =    8.83 sec.
  Wait time (average)   =    9.73 sec.
                          ------------
Total (root+branch&cut) =  101.52 sec. (67973.00 ticks)
MKLROOT=/global/software/sl-6.x86_64/modules/langs/intel/2015.6.233/mkl
SLURM_NODELIST=n0130.savio1
SLURM_CHECKPOINT_IMAGE_DIR=/var/slurm/checkpoint
MANPATH=/global/software/sl-6.x86_64/modules/langs/julia/0.5.0/share/man:/global/software/sl-6.x86_64/modules/langs/intel/2015.6.233/man/en_US:/global/software/sl-6.x86_64/modules/langs/gcc/4.8.5/share/man:/usr/share/man
SLURM_JOB_NAME=aggregator
HOSTNAME=n0130.savio1
SLURM_NTASKS_PER_NODE=1
SLURM_TOPOLOGY_ADDR=ib-savio.ib-savio-05.n0130.savio1
SLURMD_NODENAME=n0130.savio1
SLURM_PRIO_PROCESS=0
SLURM_NODE_ALIASES=(null)
TERM=xterm-256color
SHELL=/bin/bash
HISTSIZE=1000
SLURM_JOB_QOS=savio_normal
SSH_CLIENT=128.32.156.166 53087 22
SLURM_TOPOLOGY_ADDR_PATTERN=switch.switch.node
TMPDIR=/tmp
LIBRARY_PATH=/global/software/sl-6.x86_64/modules/langs/julia/0.5.0/lib/julia:/global/software/sl-6.x86_64/modules/langs/intel/2015.6.233/mkl/lib/intel64:/global/software/sl-6.x86_64/modules/langs/gcc/4.8.5/lib64:/global/software/sl-6.x86_64/modules/langs/gcc/4.8.5/lib
GCC_DIR=/global/software/sl-6.x86_64/modules/langs/gcc/4.8.5
FPATH=/global/software/sl-6.x86_64/modules/langs/intel/2015.6.233/mkl/include/fftw:/global/software/sl-6.x86_64/modules/langs/intel/2015.6.233/mkl/include
SSH_TTY=/dev/pts/23
USER=jdlara
SLURM_NNODES=1
LD_LIBRARY_PATH=/global/software/sl-6.x86_64/modules/langs/julia/0.5.0/lib/julia:/global/software/sl-6.x86_64/modules/langs/intel/2015.6.233/mkl/lib/intel64:/global/software/sl-6.x86_64/modules/langs/gcc/4.8.5/lib64:/global/software/sl-6.x86_64/modules/langs/gcc/4.8.5/lib:/global/home/users/jdlara/gurobi652/linux64/lib
LS_COLORS=rs=0:di=38;5;27:ln=38;5;51:mh=44;38;5;15:pi=40;38;5;11:so=38;5;13:do=38;5;5:bd=48;5;232;38;5;11:cd=48;5;232;38;5;3:or=48;5;232;38;5;9:mi=05;48;5;232;38;5;15:su=48;5;196;38;5;15:sg=48;5;11;38;5;16:ca=48;5;196;38;5;226:tw=48;5;10;38;5;16:ow=48;5;10;38;5;21:st=48;5;21;38;5;15:ex=38;5;34:*.tar=38;5;9:*.tgz=38;5;9:*.arj=38;5;9:*.taz=38;5;9:*.lzh=38;5;9:*.lzma=38;5;9:*.tlz=38;5;9:*.txz=38;5;9:*.zip=38;5;9:*.z=38;5;9:*.Z=38;5;9:*.dz=38;5;9:*.gz=38;5;9:*.lz=38;5;9:*.xz=38;5;9:*.bz2=38;5;9:*.tbz=38;5;9:*.tbz2=38;5;9:*.bz=38;5;9:*.tz=38;5;9:*.deb=38;5;9:*.rpm=38;5;9:*.jar=38;5;9:*.rar=38;5;9:*.ace=38;5;9:*.zoo=38;5;9:*.cpio=38;5;9:*.7z=38;5;9:*.rz=38;5;9:*.jpg=38;5;13:*.jpeg=38;5;13:*.gif=38;5;13:*.bmp=38;5;13:*.pbm=38;5;13:*.pgm=38;5;13:*.ppm=38;5;13:*.tga=38;5;13:*.xbm=38;5;13:*.xpm=38;5;13:*.tif=38;5;13:*.tiff=38;5;13:*.png=38;5;13:*.svg=38;5;13:*.svgz=38;5;13:*.mng=38;5;13:*.pcx=38;5;13:*.mov=38;5;13:*.mpg=38;5;13:*.mpeg=38;5;13:*.m2v=38;5;13:*.mkv=38;5;13:*.ogm=38;5;13:*.mp4=38;5;13:*.m4v=38;5;13:*.mp4v=38;5;13:*.vob=38;5;13:*.qt=38;5;13:*.nuv=38;5;13:*.wmv=38;5;13:*.asf=38;5;13:*.rm=38;5;13:*.rmvb=38;5;13:*.flc=38;5;13:*.avi=38;5;13:*.fli=38;5;13:*.flv=38;5;13:*.gl=38;5;13:*.dl=38;5;13:*.xcf=38;5;13:*.xwd=38;5;13:*.yuv=38;5;13:*.cgm=38;5;13:*.emf=38;5;13:*.axv=38;5;13:*.anx=38;5;13:*.ogv=38;5;13:*.ogx=38;5;13:*.aac=38;5;45:*.au=38;5;45:*.flac=38;5;45:*.mid=38;5;45:*.midi=38;5;45:*.mka=38;5;45:*.mp3=38;5;45:*.mpc=38;5;45:*.ogg=38;5;45:*.ra=38;5;45:*.wav=38;5;45:*.axa=38;5;45:*.oga=38;5;45:*.spx=38;5;45:*.xspf=38;5;45:
CPATH=/global/software/sl-6.x86_64/modules/langs/julia/0.5.0/include:/global/software/sl-6.x86_64/modules/langs/intel/2015.6.233/mkl/include/fftw:/global/software/sl-6.x86_64/modules/langs/intel/2015.6.233/mkl/include:/global/software/sl-6.x86_64/modules/langs/gcc/4.8.5/include
SLURM_JOBID=1277269
SLURM_NTASKS=1
NLSPATH=/global/software/sl-6.x86_64/modules/langs/intel/2015.6.233/mkl/lib/intel64/locale/en_US
MAIL=/var/spool/mail/jdlara
PATH=/global/software/sl-6.x86_64/modules/langs/julia/0.5.0/bin:/global/software/sl-6.x86_64/modules/langs/gcc/4.8.5/bin:/usr/local/bin:/bin:/usr/bin:/usr/local/sbin:/usr/sbin:/sbin:/global/home/groups/allhands/bin:/global/home/users/jdlara/gurobi652/linux64/bin:/global/home/users/jdlara/bin:/global/home/users/jdlara/gurobi652/linux64/bin
SLURM_TASKS_PER_NODE=20
SLURM_CPUS_PER_TASK=1
SLURM_JOB_ID=1277269
PWD=/global/home/users/jdlara/Julia_testcodes/aggregator_model/Multiple_fleet
SLURM_JOB_USER=jdlara
_LMFILES_=/global/software/sl-6.x86_64/modfiles/langs/gcc/4.8.5:/global/software/sl-6.x86_64/modfiles/gcc/4.8.5/mkl/2015.6.233:/global/software/sl-6.x86_64/modfiles/langs/julia/0.5.0
CUDA_VISIBLE_DEVICES=NoDevFiles
MODULEPATH=/global/software/sl-6.x86_64/modfiles/tools:/global/software/sl-6.x86_64/modfiles/langs:/global/software/sl-6.x86_64/modfiles/julia/0.5.0:/global/software/sl-6.x86_64/modfiles/gcc/4.8.5
LOADEDMODULES=gcc/4.8.5:mkl/2015.6.233:julia/0.5.0
SLURM_JOB_UID=42745
SLURM_NODEID=0
SLURM_SUBMIT_DIR=/global/home/users/jdlara/Julia_testcodes/aggregator_model/Multiple_fleet
SLURM_NPROCS=1
SLURM_TASK_PID=48049
LM_LICENSE_FILE=28518@lmgr0.hpcs.lbl.gov
SLURM_CPUS_ON_NODE=20
JULIA_DIR=/global/software/sl-6.x86_64/modules/langs/julia/0.5.0
ALLHANDS_BASHRC=1
HISTCONTROL=ignoredups
ENVIRONMENT=BATCH
SLURM_PROCID=0
MKL_DIR=/global/software/sl-6.x86_64/modules/langs/intel/2015.6.233/mkl
SLURM_JOB_NODELIST=n0130.savio1
SHLVL=3
HOME=/global/home/users/jdlara
SLURM_LOCALID=0
SLURM_CLUSTER_NAME=brc
SLURM_JOB_CPUS_PER_NODE=20
SLURM_SUBMIT_HOST=n0120.savio1
SLURM_GTIDS=0
SLURM_JOB_PARTITION=savio
LOGNAME=jdlara
CVS_RSH=ssh
SSH_CONNECTION=128.32.156.166 53087 10.0.0.22 22
SLURM_JOB_ACCOUNT=fc_emac
GPU_DEVICE_ORDINAL=NoDevFiles
MODULESHOME=/usr/Modules
SLURM_JOB_NUM_NODES=1
LESSOPEN=||/usr/bin/lesspipe.sh %s
INFOPATH=/global/software/sl-6.x86_64/modules/langs/gcc/4.8.5/share/info
INCLUDE=/global/software/sl-6.x86_64/modules/langs/julia/0.5.0/include:/global/software/sl-6.x86_64/modules/langs/intel/2015.6.233/mkl/include/fftw:/global/software/sl-6.x86_64/modules/langs/intel/2015.6.233/mkl/include:/global/software/sl-6.x86_64/modules/langs/gcc/4.8.5/include
G_BROKEN_FILENAMES=1
SLURM_MEM_PER_NODE=64000
BASH_FUNC_module()=() {  logger "$HOSTNAME $USER: module $*";
 eval `/usr/Modules/bin/modulecmd bash $*`
}
_=/bin/env
